c generated by sgen
p cnf 85 180
-2 -3 -4 0
-1 -3 -4 0
-1 -2 -4 0
-1 -2 -3 0
-6 -7 -8 0
-5 -7 -8 0
-5 -6 -8 0
-5 -6 -7 0
-10 -11 -12 0
-9 -11 -12 0
-9 -10 -12 0
-9 -10 -11 0
-14 -15 -16 0
-13 -15 -16 0
-13 -14 -16 0
-13 -14 -15 0
-18 -19 -20 0
-17 -19 -20 0
-17 -18 -20 0
-17 -18 -19 0
-22 -23 -24 0
-21 -23 -24 0
-21 -22 -24 0
-21 -22 -23 0
-26 -27 -28 0
-25 -27 -28 0
-25 -26 -28 0
-25 -26 -27 0
-30 -31 -32 0
-29 -31 -32 0
-29 -30 -32 0
-29 -30 -31 0
-34 -35 -36 0
-33 -35 -36 0
-33 -34 -36 0
-33 -34 -35 0
-38 -39 -40 0
-37 -39 -40 0
-37 -38 -40 0
-37 -38 -39 0
-42 -43 -44 0
-41 -43 -44 0
-41 -42 -44 0
-41 -42 -43 0
-46 -47 -48 0
-45 -47 -48 0
-45 -46 -48 0
-45 -46 -47 0
-50 -51 -52 0
-49 -51 -52 0
-49 -50 -52 0
-49 -50 -51 0
-54 -55 -56 0
-53 -55 -56 0
-53 -54 -56 0
-53 -54 -55 0
-58 -59 -60 0
-57 -59 -60 0
-57 -58 -60 0
-57 -58 -59 0
-62 -63 -64 0
-61 -63 -64 0
-61 -62 -64 0
-61 -62 -63 0
-66 -67 -68 0
-65 -67 -68 0
-65 -66 -68 0
-65 -66 -67 0
-70 -71 -72 0
-69 -71 -72 0
-69 -70 -72 0
-69 -70 -71 0
-74 -75 -76 0
-73 -75 -76 0
-73 -74 -76 0
-73 -74 -75 0
-78 -79 -80 0
-77 -79 -80 0
-77 -78 -80 0
-77 -78 -79 0
-81 -82 -83 0
-81 -82 -84 0
-81 -82 -85 0
-81 -83 -84 0
-81 -83 -85 0
-81 -84 -85 0
-82 -83 -84 0
-82 -83 -85 0
-82 -84 -85 0
-83 -84 -85 0
25 67 13 0
69 67 13 0
69 25 13 0
69 25 67 0
46 27 81 0
61 27 81 0
61 46 81 0
61 46 27 0
9 19 30 0
47 19 30 0
47 9 30 0
47 9 19 0
29 70 57 0
1 70 57 0
1 29 57 0
1 29 70 0
80 4 45 0
14 4 45 0
14 80 45 0
14 80 4 0
64 35 75 0
56 35 75 0
56 64 75 0
56 64 35 0
41 12 53 0
21 12 53 0
21 41 53 0
21 41 12 0
55 59 78 0
85 59 78 0
85 55 78 0
85 55 59 0
8 23 82 0
34 23 82 0
34 8 82 0
34 8 23 0
22 52 38 0
73 52 38 0
73 22 38 0
73 22 52 0
7 58 20 0
43 58 20 0
43 7 20 0
43 7 58 0
83 10 51 0
3 10 51 0
3 83 51 0
3 83 10 0
16 40 42 0
63 40 42 0
63 16 42 0
63 16 40 0
76 15 32 0
84 15 32 0
84 76 32 0
84 76 15 0
17 39 54 0
72 39 54 0
72 17 54 0
72 17 39 0
6 68 37 0
11 68 37 0
11 6 37 0
11 6 68 0
31 5 50 0
26 5 50 0
26 31 50 0
26 31 5 0
79 66 62 0
18 66 62 0
18 79 62 0
18 79 66 0
71 33 49 0
77 33 49 0
77 71 49 0
77 71 33 0
60 24 65 0
48 24 65 0
48 60 65 0
48 60 24 0
2 36 28 0
2 36 74 0
2 36 44 0
2 28 74 0
2 28 44 0
2 74 44 0
36 28 74 0
36 28 44 0
36 74 44 0
28 74 44 0
